certificates/rado_a6_c38_N10.cnf
c Rad2 upper bound instance: x1 + 6*x2 - x3 = 38, interval [1,10]
p cnf 10 32
1 5 7 0
-1 -5 -7 0
2 6 7 0
-2 -6 -7 0
1 3 6 0
-1 -3 -6 0
3 7 0
-3 -7 0
2 4 6 0
-2 -4 -6 0
4 7 8 0
-4 -7 -8 0
3 5 6 0
-3 -5 -6 0
5 7 9 0
-5 -7 -9 0
4 6 0
-4 -6 0
6 7 10 0
-6 -7 -10 0
5 6 7 0
-5 -6 -7 0
6 8 0
-6 -8 0
1 5 9 0
-1 -5 -9 0
6 7 9 0
-6 -7 -9 0
2 5 10 0
-2 -5 -10 0
6 8 10 0
-6 -8 -10 0
