certificates/rado_a6_c38_N10.drat
-8 -10 0
-10 0
-7 -6 0
d -7 -2 -6 0
8 0
-6 0
4 0
7 0
0
